
 102   30
  10   10   10   10   10   10   10   10   10   10   10   10   10   10   10   10   10   10   10   10   10   10   10   10   10   10   10   10   10   10

   0   0   0   0   0   0   0   0   0   0   0   0   0   0   0   0   0   0   0   0   0   0   0   0   0   0   0   0   0   0   0  27 2 3 4 5 6 7 8 9 10 11 12 13 14 16 18 19 20 22 23 24 27 28 31 33 37 38 51 
   4   0   0   0   0   0   0   0   0   0   0   0   0   0   0   0   0   0   0   0   0   2   0   2   0   0   0   0   0   0   0  12 100 73 66 65 57 47 43 39 34 26 25 17 
   3   0   0   0   0   0   0   0   0   0   0   0   0   0   0   1   1   0   0   0   3   0   0   0   0   0   0   0   0   0   0  16 100 72 66 65 62 61 57 56 53 49 48 46 43 42 30 21 
   6   0   0   0   0   0   0   0   3   0   0   0   0   0   1   0   4   0   0   0   0   0   0   0   0   0   0   0   0   0   0  17 101 100 89 88 87 72 65 63 62 61 60 55 53 47 42 36 35 
   6   0   0   0   0   0   0   0   0   4   0   0   0   0   0   0   0   0   2   0   0   0   0   0   0   0   1   0   0   0   0  16 87 73 72 63 60 59 55 54 52 48 47 45 44 42 41 36 
   5   0   1   0   5   0   0   0   0   8   0   0   0   0   0   0   0   0   0   0   0   0   0   0   2   2   0   3   0   0   0  15 101 100 73 72 69 68 66 61 60 58 52 46 45 34 29 
   4   0   0   0   0   0   0   0   5   0   1   0   0   0   0   0   0   0   0   0   0   0   0   7   0   0   6   0   0   0   0  14 101 100 91 89 68 60 58 56 53 47 46 45 32 30 
   9   0   0   0   0   0   0   0  10   7   0   0   1   0   0   0   0   0   0   0   0   0   0   0   9   0   0   0   0   0   0   7 100 91 62 59 45 42 15 
   2   0   0   0   0   4   1   0   0   0   0   0   0   0   0   0   0   0   0   0   0   0   0   0   0   0   0   0   0   0   0   9 87 70 65 60 54 42 40 34 21 
  10   0   0   0   0   0   0   0   4   0   0   0   6   0   0   0   0   1   0   0   5   0   0   0   0   0   0   5   0   0   0  11 99 90 72 65 62 55 53 52 50 47 21 
   6   0   0   0   0   3   0   0   0   7   0   0   0   0   0   6   0   0   0   0   0   0   0   0   0   0   0   0   1   0   2  16 100 95 91 87 72 66 63 62 61 60 57 53 52 47 46 45 
  10   0   0   0   0   0   0   0   0   0   0   0   0   0   0   3   0   0   0   0   0   0   0   0   0   0   7   0   0   0   0  14 91 90 86 73 72 71 64 62 61 57 50 47 43 34 
   5   0   0   1   0   0   0   0   0   0   0   1   0   0   6   0   0   0   0   0   0   0   0   5   0   0   0   0   0   0   2  12 100 92 88 64 60 55 54 52 46 42 41 40 
   9   1   0   0   0   9   0   0   0   0   0   0   0   0   0   0   0   0   0   0   0   0   0   0   0   0   0  10   0   0   0  12 92 88 73 72 70 65 64 52 46 42 41 34 
   9   0   0   0   6   0   0   2   0   0   0   6   0   0   0   8   0   0   0   0   0   0   0   0   0   0  10   0   0   0  10  13 92 89 88 73 72 70 69 64 60 56 53 52 34 
   9   0   0   0   0   0   0   0   0   3   0   0   0   0   8   0   0   0   0   0   4   0   0   0   0   0  10   0   0   0   0  16 93 92 91 89 86 73 71 68 67 63 61 58 57 52 47 44 
   4   8   0   0   0   0   0   0   6   0   0   6   0   1   0   0   5   7   6   0   0   5   2   0   0   0   0   0   0   0   0  13 101 94 93 90 72 70 69 67 60 53 52 49 44 
   4   0   0   0   0   0   0   0   0   0   0   0   0   0   0   7   0   0   0   0   0   0   0   0   0   0   0   0   0   0   0   8 96 95 92 72 59 45 42 41 
   2   0   0   5   7   0   0   0   0   0   0   0   0   0   0   0   0   0   0   0   0   0   0   0   0   0   0   0   9   0   8  18 99 98 97 96 95 94 92 91 83 82 72 70 69 65 60 59 53 52 
   9   7   5   0   0   0   0   0   0   0   0   0   0   0   0   0   0   0   0   0   0   6   0   0   0   0   0   0   4   0   0  14 100 96 95 94 93 91 88 84 83 73 71 59 57 42 
   5   0   0   0   0   0   0   0   0   0   5   0   0   0   0   0   0   0   0   0   0   0   0   0   5   0   0   0   0   0   0  20 101 98 97 96 95 94 93 92 91 89 85 82 79 78 71 69 67 64 63 58 
  10   0   8   0   0   0   0   0   0   0   0   5   0   0   0   0   8   8   0   0   0   0   0   0   0   0   0   0   0   0   0  17 99 97 94 91 90 89 88 83 82 73 72 70 68 67 64 57 53 
  10   0   0   0   0   0   0   0   0   0   7   0   0   0   0   0   0   0   0   4   0   0   0   0   0   0   0   0   0   0   0  13 95 93 91 90 88 86 82 78 67 63 60 55 46 
   8   7   0   0   0   9   0   0   0   0   0   0   7   6   0   0   0   0   0   0   0   0   6   0   0   0   0   0   0   0   0   9 94 71 69 68 67 65 55 52 44 
   9   0   0   0   0   0   0   0   0   0   0   0   0   0   0   0   0   0  10   4   0   0   0   0   0   0   0   0   0   0   0  13 99 98 97 96 89 82 79 71 70 69 64 59 48 
   6   0   0   0   0   0   0   0   0   0   6   0   0   7   0   0   0   5   3   0   0   5   0   0   0   0   0   0   0   0   4   8 94 90 87 86 72 61 52 36 
   7   0   0   0   0   0   0   0   0   0   0   0   0   0   0   9   0   0   4   0   0   0   0   0   5   0   0   0   0   0   0  13 99 98 97 96 95 93 85 84 73 71 60 54 52 
   5   0   0   0   0   6   7   0   3   6   0   0   0   0   0   0   0   0   0   0   0   5   7   0   0   0   0   0   0   0   0  12 99 94 92 91 88 84 82 79 72 70 63 50 
   3   0   0   5   0   0   0   0  10   0   0   8   0   0   9   0   0   0   7   0   0   0   0   0   0   0   6   0   0   4   0  11 98 92 91 86 85 80 71 67 65 64 47 
   1   0   0   9   0   0   0   0   0   0   0   0   0   0   0   0  10   0   0   5   0   0   4   0   0   0   0   0   0   0   0   9 93 92 87 73 70 69 67 64 44 
   7   0   0   0   0   0   0   0   0   0   0   0   0   4   0   0   0   0   0   0   0   0   0   0   0   0   0   0   7   0   0  17 99 97 96 95 94 92 90 89 86 81 80 79 77 73 71 63 57 
   8   0   0   0   0   0   0   0   5   0   0   0   0   0   0   0   0   0   0   0   0   0   8   0   0   0   0   0   0   0   0  15 99 98 87 86 85 84 82 81 80 78 72 71 67 63 55 
   9   0   0   0   0   0   0   5   0   0   0   2   0   0   0   0   0   0   0   0   7   4   0   0   0   0   0   0   0   0   0   6 91 87 86 73 55 44 
   1   9   0   0   0   0   0   0   0   0   0   0   0   5   6   0   0   0   8   0   7   0   0   0   0   0   0   0   0   0   0   5 81 67 63 55 44 
   7   0   6   0   0   0   0   0   0   0   0   0   0   0   0   0   0   0   0   0   3   0   0   0   0   0   0   7   0   0   4  10 96 91 90 86 73 71 68 67 57 52 
   8   0   0   0   0   0   5   0   0   0   6   9   0   0   0   0   0   0   0   0  10   0   8   6   0   6   0   0   9   0   0  14 99 98 92 91 84 83 82 81 80 79 78 74 71 68 
   2   0   0   0   0   0   0   0   0   0  10   0   0   0   0   4   0   0   0   0   0   0   0   0   0   0   0   0   0   4   0  13 99 90 86 85 84 83 81 79 78 73 71 68 67 
   6   8   0   0   0   6   0   0   0   0   0   0   0   0   0   0   0   0   0   0   0   5   0   0   0   0   6   0   0   0   0  15 99 98 97 95 91 89 87 86 81 80 79 78 76 74 72 
   4   0   0   5   0   0   0   0   0   0   9   0   0   0   0   0   0   0   0   0   0   6   0   0   0   0   0   0   0   0   0  14 99 98 97 96 94 93 92 84 82 81 79 78 75 67 
   4   0   0   0   0   0   0   0   0   0   0   0  10   0   0   0   0   6   7   0   0   0   0   0   0   0   0   0   0   0   7  13 99 95 93 91 86 85 82 80 78 76 73 72 68 
   3   0   0   0   0   0   0   0   0   4   0   8   0   0   0   0   0   0   0   0   0   0   0   7   0   0   0   0   0   0   0  12 99 98 94 89 85 84 80 78 75 71 69 67 
  10   0   0   0   0   0   0   0   0   0   0   0   0   8   0   0   0   0   0   0   0   0   0   0   0   0   9   0   0   0   0  11 99 97 90 82 81 80 79 78 69 68 67 
   9   0   0   0   0   0   0   6   0   0   0   0   0   0   0   0   0   0   0   0   0   0   0   0   0   0   0   0   0   0   0  10 99 98 89 82 81 80 79 78 76 59 
   6   0   0   0   0   0   0  10   0   5   0   0   0   0   0   0   0  10   0   0   0   0   0   4   0   0   0   0   0   0   7  14 99 98 97 95 85 84 83 82 80 78 77 76 75 74 
   7   0   0   0   0   0   0   0   0   0   0   0   0   0   0   0   0   4   0   0   6   0   0   0   7   0   0   0   0   7   0   9 93 90 86 85 83 82 71 67 64 
   4   0   0   0   0   0   0   0   0   0   0   0   0   0   6   0   0   0   9   5   0   0   7   5   0   0   0   0   0   7   0  12 99 98 96 85 84 83 81 80 79 75 74 71 
   7   0   0   0   0   0   6   0   0   0   0   0   0   0   0   0   0   0   0   0   6   0   3  10   0   0   0   0  10   0   0  10 97 94 83 82 79 78 77 75 74 70 
   9   0   0   0   0   5   0   0   0   0   0   0   0   0   7   0   0   0   6   0   0   0   0   0   0   4   0   0   7   0   0  11 95 88 84 83 81 80 78 77 76 75 74 
   9   0   0   8   3   0   0   0   0   0   0   0   0   0   0   4   0   0   0   0   4   9   0   0   0   0   0   0   0   0   0  10 97 96 92 82 80 79 78 77 75 71 
   2   4   0   0   4   0   9   0   0   0   0   0   0   0   0   0   0   0   0   0   0   0   0   7   0   0   0   0   0   2   0   9 96 95 93 85 80 78 76 74 68 
   1   0   0   0   0   0   0   0   0   0   0   0   0   0   0   0   0   0   0   0   0   0   0   0   0   0   0   0   0   7   0   8 93 86 82 81 80 79 72 67 
   7   0   0   0   0   0   0   0   0   5   0   0   0   0   0   0   0   0   0   0   0   0   0   0   0   0   0   0   0   0   5   7 81 80 79 78 76 75 74 
   6   0   0   0   0   0   0   0   0   0   8   0   0   0   0   0   0   0   0   0   0   0   0   0   0   0   0   0   0   0   0   6 86 84 79 75 74 71 
   9   0   0   0   0   0   0   0   0   0   0   0   7   0   0   0   4   0   0   0   0   0   0   0   0   7   0   0   0   0   0   5 86 83 82 78 67 
   9   0   0   0   0   0   0   0   5   0   0   0   0   0   0   0   0   0   0   0   0   0   0   0   0   6   0   0   0   0   0   6 97 96 83 79 77 76 
   3   0   0   0   0   0   0   0   0   0   0   0   0   0   0   0   0   0   0   0   0   0   0   0   0   0   0   0   6   0   0   6 97 94 82 80 77 76 
   9   0   0   0   6   0   0   5   0   0   0   0   0   0   0   0   0   0   0   0   0   0   0   0   0   0   0   0   0   0   0   5 98 85 78 76 75 
   2   0   0   0   0   0   0   0   0   0   0   0   0   0   0   0   0   0   0   0   0   0   0   0   0   9   0   4   0   0   9   5 84 83 80 76 74 
   7   0   5   0   0   1   0   0   0   0   0   0   0   0   0   9   0   0   0   0   6   0   0   7   0   0   0   0   0   0   0   3 85 75 67 
   6   0   0   0   0   0   5   0   0   0   0   0   0   0   0   0   0   0   5   6   7   0   0   0   0   0   0   8   0   0   0   4 79 77 75 74 
   3   0   0   0   0   0   0   0   0   0   0   0   0   0   0   0   0   0   0  10   0   0   0   0   0   0   0   0   0   0   8   4 96 79 75 74 
   7   0   0   0   0   7   0   0   7   0   5   0   0   0   0   0   0   0   0   0   0   0   0   0   0   0   0   0   0   0   0   4 94 79 76 74 
   5   0   0   0   6   0   0   0   4   0   0   4   0   0   0   0   0   0   0   0   0   0   5   0   0   0   0   0   0   0   0   3 83 75 74 
   3   0   0   6   0   0   7   0   0   0   0   0   0   0   4   0   0   0   0   0   0   0   0   0   6  10   2   6   0   0   0   3 84 81 74 
   2   0   0   8   0   0   0   0   4   0   0   0   0   0   0   0   0   0   0   0   0   8   0   0   0   0   0   0   0   3   0   3 93 77 76 
   3   0   0   0   0   5   6   0   0   0   0   0   0   0   0   0   0   0   0   0   0   0   0   0   0   0   0   0   8   0   0   3 92 78 75 
   7   0   0   1   0   0   0   0   0   6   0   0   0   0   0   0   0   0   0   0   0   0   0   0   0   0   0   0   5   0   0   2 77 74 
   3   0   0   0   0   0   0   0   0   0   0   0   0   8   0   0   0   0   0   0   0   0   3   0   9   0   0   0   0   0   5   2 77 75 
  10   0   0   7   8   0   0   0   0   0   0   0   2   0   0   0   0   0   0   0   2   0   0   0   6   0   0   0   0   0   0   2 86 76 
   1   0   0   0   0   0   0   0   0   0   0   0   0   0   0   0   8   0   0   0   6   0   0   0   0   0   0   0   3   0   0   2 81 76 
   3   0   0   0   0   0   0   0   0   0   0   0   0   0   0   0   0   0   0   0   0   0   0   6   0   0   0   0   0   0   0   1 76 
   5   0   9   9   0   0   0   0   0   0   0   7   0   0   0   0   0   0   0   0   0   0   0   0   0   0   0   0   0   0   7   1 75 
   3   0   0   0   0   7   0   0   4   0   0   0   0   0   0   0   8   0   0   0   0   7  10   0   0   0   2   0   0   0   0   1 74 
   4   0   8   0  10   0   0   0   0  10   0   0   0   0   0   0   0   0   0   0   7   0   0   0   0   0   0   7   0   0   0   1 102
   4   5   8   6   0   0   0   0   0   0   0   0   9   0   0   0   0   0   0   7   0   0   0   0   0   0   0   0   0   0   0   1 102
   3   0   0   0   0   0   8   0   0   0   0   0   0   0   0   0   0   8   0   0   0   2   0   4   7   0   0   0   0   0   0   1 102
   4   0   0   0   0   0   0   0  10   0   0  10   0   0   0   0   0   0   5   0   4   0   0   0   0   0   7   0   0   9   0   1 102
   2   6   0   0   0   0   0   0   0   0   0   0   0   0   0   0   0   0   9   0   0   0   0   0   0   0   0   0   0  10   0   1 102
   2   0   0   0   6   0   0   0   0   0   0   0   0   0   0   0   0   0   0   0   0   0   0   0   0   0   0   0   0   0   0   1 102
   4   0   0   0   0   0   0   0   0  10   2   0   0   0   0   0   0   6   0   0   9   7   0   7   0   0   4   0   6   0   0   1 102
   5   0   7   0   0   0   0   0   0   0   0   0   0   0   0   0   0   2   0   0   5   0   0   0   0   5   0   0   0   0   0   1 102
   2   0   0   0   0   0   0   0   0   0   0   0   0   0   0   0   0   0   0   0   0   0   0   0   4   0   0   5   7   0   0   1 102
   3   0   0   0   0  10   0   0   0   0   0   0   0   6   0   0   0   0   0   0  10   6   5   0  10   0   0   7   0   0   0   1 102
   4   0   0   0   0   0   6   6   0   0   0   0   0   0   0   0   0   0   0   4   0   0  10   0   0   0   0   0   0   0   0   1 102
   7   7   0   0   0   0   0   9   0   0   0   0   6   4   0   0   0   0   0   0   0   0   0   0   0   0   0   0   2   0   8   1 102
   8   0   6   0   0   0   0   7   0   0   0   0   0   0   0   0   0   0   0   0   0   0   0   3   0   0   0   0   0   0   0   1 102
   5   4   1   0   0   0   0   0   7   0   0   0   0   0   0   7   0   0   0   0   0   8   0   0   0   0   0   0   6   0   0   1 102
   3   0   0   4   0   0   0   0   0   0   6   0   0   7   0   0   0   0   0   0   0   5   0   0   0   0   0   0   0   0   0   1 102
   3   0   0   0   5   0   0   0   0   0   0   0   0   0   0   0   5   0   0   0   0   0   0   0   0   0   0   0   0   6   0   1 102
   1   0   0   0   0   0   0   0   9   0   0   0   0   0   0   0   0   0   4   0   9   0   0   0   4   0   0   0   0   8   0   1 102
   7   0   0   0   0   0   0   0   0   0   0   0   0   0   0   0   0   0   0   0   0   0   0   0   0   0   8   0   0   0   0   1 102
   6   0   0   0   0   0   0   0   3   0   3   0   0   0   0   0   0   0   0   6   0   0   0  10   4   0   0   0   7   0   0   1 102
   2   0   0   0   0   0   0   0   0   0   0   0   0   0   0   0   0   0   0   0   0   0   0   0   0   0   0   0   0   0   0   1 102
  10   0   8   0   0   0   0   4   0   0   0   6   0   0   0   0   0   0   5   0   0  10   2   0   0   0   0   0   0   5   4   1 102
   3   0   6   0   0   0   0   0   7   0   0   0   0   0   0   0   0   0   0   5   0   0   0   0   0   0   0   0   5   0   0   1 102
  10   0   0   9   0   6   0   0   0   0   0   0   0  10   0   0   7   0   0   0   0   0   0   0   0   0   0   0   0   0   0   1 102
   4   0   0   0   0   0   0   0   0   0   0   0   0   0   0   0   0   0   0   0   0   5   0   0   0   0   0   0   0   0   0   1 102
   8   0   0   0   0   0   0   0   0   0  10   0   0   0   0   0   0   0   0   0   0   0   0   0   0   5   0   4   0   0   0   1 102
   2   0   0   0   8   0   0   0   8   6   0   0   0   0   7   0   0   0   0   0   6   0   0   0   0   0   0   0   0   0   0   1 102
   4   0   0   7   0   0   6   0   0   0   0   0   6   0   0   8   0   0   0   0   0   0   0   0   0   0   0   0   0   0   0   1 102
  10   0   0   0   4   0   0   0   0   3   0   0   0   0   0   0   0   9   0  10   0   9  10   0   0   0   0   0   0   0   0   1 102
   0   0   0   0   0   0   0   0   0   0   0   0   0   0   0   0   0   0   0   0   0   0   0   0   0   0   0   0   0   0   0   0 
